NAME : portcgen-22-20
COMMENT : portcgen N=22, seed=20
TYPE : TSP
DIMENSION : 22
EDGE_WEIGHT_TYPE : EUC_2D
NODE_COORD_SECTION
1 309698 -88018
2 -122137 -23335
3 -585815 240749
4 176800 39091
5 107331 420107
6 -99169 -257747
7 4287 10063
8 -60806 -821669
9 106935 218343
10 134235 -120692
11 -134933 28753
12 87554 -153322
13 -225244 -126665
14 -156111 87166
15 441218 -409801
16 121470 -178557
17 187461 177814
18 73893 151265
19 -98932 -233585
20 135892 -198947
21 -119721 212230
22 -152157 -458284
